TCS_Benchmarks/redos_fix/snort3_output_distinct_3142_3141_24_0.txt
((.|\n|\r)*)(\s*)
((.|\n|\r)*)(<\s*[mM][aA][rR][qQ][uU][eE][eE][^>]*[iI][dD])(\s*)